NAME: instance_1616
TYPE: TSP
DIMENSION: 20
EDGE_WEIGHT_TYPE: EUC_2D
NODE_COORD_SECTION
0 71.89 61.56
1 19.65 1.07
2 36.40 72.59
3 63.42 85.79
4 98.14 20.40
5 78.94 67.19
6 91.66 55.08
7 77.72 33.04
8 59.15 29.12
9 56.47 16.37
10 62.84 0.73
11 93.53 47.52
12 30.23 69.55
13 9.69 57.08
14 94.25 46.35
15 49.06 12.59
16 88.62 69.21
17 91.13 68.36
18 62.82 95.36
19 19.58 59.26
EOF
